Maximize
  10 x_vitamin_shots + 7 x_pills
Subject To
  c1: x_pills - x_vitamin_shots >= 0
  c2: x_vitamin_shots <= 10
  c3: 30 x_vitamin_shots + 50 x_pills <= 1200
  c4: 40 x_vitamin_shots + 30 x_pills <= 1500
End